000 090016
001 090017
002 041020
003 051018
004 051019
005 061017
006 074014
007 042018
008 032016
009 052018
010 041020
011 011020
012 051020
013 076005
014 100018
015 000000
016 0
017 0
018 0
019 0
020 1
 -1  000
